(set-info :smt-lib-version 2.6)
(set-logic QF_NIA)
(set-info :source |
 more info in 'N. P. Lopes, L. Aksoy, V. Manquinho, J. Monteiro.
 Optimally Solving the MCM Problem Using Pseudo-Boolean Satisfiability.
 Technical Report RT/43/2010, INESC-ID, Nov. 2010'. |)
(set-info :category "industrial")
(set-info :status sat)
(declare-fun X18 () Int)
(declare-fun X19 () Int)
(declare-fun S0 () Int)
(declare-fun S1 () Int)
(declare-fun S2 () Int)
(declare-fun S3 () Int)
(define-fun power2 ((x Int)) Bool
  (or (= x 1024) (= x 512) (= x 256) (= x 128) (= x 64) (= x 32) (= x 16) (= x 8) (= x 4) (= x 2) (= x 1)))
(assert (or
 (= X18 (+ S0 S1))
 (= X18 (- S0 S1))
 (= X18 (+ (* 31 S0) S1))
 (= X18 (- (* 31 S0) S1))
 (= X18 (- S0 (* 31 S1)))
 (= X18 (+ (* 31 S0) (* 31 S1)))
 (= X18 (- (* 31 S0) (* 31 S1)))
 (= X18 (+ (* 31 S0) (* 17 S1)))
 (= X18 (- (* 31 S0) (* 17 S1)))
 (= X18 (- (* 17 S0) (* 31 S1)))
 (= X18 (+ (* 31 S0) (* 23 S1)))
 (= X18 (- (* 31 S0) (* 23 S1)))
 (= X18 (- (* 23 S0) (* 31 S1)))
 (= X18 (+ (* 31 S0) (* 49 S1)))
 (= X18 (- (* 31 S0) (* 49 S1)))
 (= X18 (- (* 49 S0) (* 31 S1)))
 (= X18 (+ (* 31 S0) (* 13 S1)))
 (= X18 (- (* 31 S0) (* 13 S1)))
 (= X18 (- (* 13 S0) (* 31 S1)))
 (= X18 (+ (* 31 S0) (* 19 S1)))
 (= X18 (- (* 31 S0) (* 19 S1)))
 (= X18 (- (* 19 S0) (* 31 S1)))
 (= X18 (+ (* 31 S0) (* 155 S1)))
 (= X18 (- (* 31 S0) (* 155 S1)))
 (= X18 (- (* 155 S0) (* 31 S1)))
 (= X18 (+ (* 31 S0) (* 241 S1)))
 (= X18 (- (* 31 S0) (* 241 S1)))
 (= X18 (- (* 241 S0) (* 31 S1)))
 (= X18 (+ (* 31 S0) (* 965 S1)))
 (= X18 (- (* 31 S0) (* 965 S1)))
 (= X18 (- (* 965 S0) (* 31 S1)))
 (= X18 (+ (* 31 S0) (* 453 S1)))
 (= X18 (- (* 31 S0) (* 453 S1)))
 (= X18 (- (* 453 S0) (* 31 S1)))
 (= X18 (+ (* 31 S0) (* 231 S1)))
 (= X18 (- (* 31 S0) (* 231 S1)))
 (= X18 (- (* 231 S0) (* 31 S1)))
 (= X18 (+ (* 31 S0) (* 589 S1)))
 (= X18 (- (* 31 S0) (* 589 S1)))
 (= X18 (- (* 589 S0) (* 31 S1)))
 (= X18 (+ (* 31 S0) (* 591 S1)))
 (= X18 (- (* 31 S0) (* 591 S1)))
 (= X18 (- (* 591 S0) (* 31 S1)))
 (= X18 (+ (* 31 S0) (* 459 S1)))
 (= X18 (- (* 31 S0) (* 459 S1)))
 (= X18 (- (* 459 S0) (* 31 S1)))
 (= X18 (+ (* 31 S0) (* 939 S1)))
 (= X18 (- (* 31 S0) (* 939 S1)))
 (= X18 (- (* 939 S0) (* 31 S1)))
 (= X18 (+ (* 31 S0) (* 851 S1)))
 (= X18 (- (* 31 S0) (* 851 S1)))
 (= X18 (- (* 851 S0) (* 31 S1)))
 (= X18 (+ (* 31 S0) (* 835 S1)))
 (= X18 (- (* 31 S0) (* 835 S1)))
 (= X18 (- (* 835 S0) (* 31 S1)))
 (= X18 (+ (* 31 S0) (* 363 S1)))
 (= X18 (- (* 31 S0) (* 363 S1)))
 (= X18 (- (* 363 S0) (* 31 S1)))
 (= X18 (+ (* 17 S0) S1))
 (= X18 (- (* 17 S0) S1))
 (= X18 (- S0 (* 17 S1)))
 (= X18 (+ (* 17 S0) (* 17 S1)))
 (= X18 (- (* 17 S0) (* 17 S1)))
 (= X18 (+ (* 17 S0) (* 23 S1)))
 (= X18 (- (* 17 S0) (* 23 S1)))
 (= X18 (- (* 23 S0) (* 17 S1)))
 (= X18 (+ (* 17 S0) (* 49 S1)))
 (= X18 (- (* 17 S0) (* 49 S1)))
 (= X18 (- (* 49 S0) (* 17 S1)))
 (= X18 (+ (* 17 S0) (* 13 S1)))
 (= X18 (- (* 17 S0) (* 13 S1)))
 (= X18 (- (* 13 S0) (* 17 S1)))
 (= X18 (+ (* 17 S0) (* 19 S1)))
 (= X18 (- (* 17 S0) (* 19 S1)))
 (= X18 (- (* 19 S0) (* 17 S1)))
 (= X18 (+ (* 17 S0) (* 155 S1)))
 (= X18 (- (* 17 S0) (* 155 S1)))
 (= X18 (- (* 155 S0) (* 17 S1)))
 (= X18 (+ (* 17 S0) (* 241 S1)))
 (= X18 (- (* 17 S0) (* 241 S1)))
 (= X18 (- (* 241 S0) (* 17 S1)))
 (= X18 (+ (* 17 S0) (* 965 S1)))
 (= X18 (- (* 17 S0) (* 965 S1)))
 (= X18 (- (* 965 S0) (* 17 S1)))
 (= X18 (+ (* 17 S0) (* 453 S1)))
 (= X18 (- (* 17 S0) (* 453 S1)))
 (= X18 (- (* 453 S0) (* 17 S1)))
 (= X18 (+ (* 17 S0) (* 231 S1)))
 (= X18 (- (* 17 S0) (* 231 S1)))
 (= X18 (- (* 231 S0) (* 17 S1)))
 (= X18 (+ (* 17 S0) (* 589 S1)))
 (= X18 (- (* 17 S0) (* 589 S1)))
 (= X18 (- (* 589 S0) (* 17 S1)))
 (= X18 (+ (* 17 S0) (* 591 S1)))
 (= X18 (- (* 17 S0) (* 591 S1)))
 (= X18 (- (* 591 S0) (* 17 S1)))
 (= X18 (+ (* 17 S0) (* 459 S1)))
 (= X18 (- (* 17 S0) (* 459 S1)))
 (= X18 (- (* 459 S0) (* 17 S1)))
 (= X18 (+ (* 17 S0) (* 939 S1)))
 (= X18 (- (* 17 S0) (* 939 S1)))
 (= X18 (- (* 939 S0) (* 17 S1)))
 (= X18 (+ (* 17 S0) (* 851 S1)))
 (= X18 (- (* 17 S0) (* 851 S1)))
 (= X18 (- (* 851 S0) (* 17 S1)))
 (= X18 (+ (* 17 S0) (* 835 S1)))
 (= X18 (- (* 17 S0) (* 835 S1)))
 (= X18 (- (* 835 S0) (* 17 S1)))
 (= X18 (+ (* 17 S0) (* 363 S1)))
 (= X18 (- (* 17 S0) (* 363 S1)))
 (= X18 (- (* 363 S0) (* 17 S1)))
 (= X18 (+ (* 23 S0) S1))
 (= X18 (- (* 23 S0) S1))
 (= X18 (- S0 (* 23 S1)))
 (= X18 (+ (* 23 S0) (* 23 S1)))
 (= X18 (- (* 23 S0) (* 23 S1)))
 (= X18 (+ (* 23 S0) (* 49 S1)))
 (= X18 (- (* 23 S0) (* 49 S1)))
 (= X18 (- (* 49 S0) (* 23 S1)))
 (= X18 (+ (* 23 S0) (* 13 S1)))
 (= X18 (- (* 23 S0) (* 13 S1)))
 (= X18 (- (* 13 S0) (* 23 S1)))
 (= X18 (+ (* 23 S0) (* 19 S1)))
 (= X18 (- (* 23 S0) (* 19 S1)))
 (= X18 (- (* 19 S0) (* 23 S1)))
 (= X18 (+ (* 23 S0) (* 155 S1)))
 (= X18 (- (* 23 S0) (* 155 S1)))
 (= X18 (- (* 155 S0) (* 23 S1)))
 (= X18 (+ (* 23 S0) (* 241 S1)))
 (= X18 (- (* 23 S0) (* 241 S1)))
 (= X18 (- (* 241 S0) (* 23 S1)))
 (= X18 (+ (* 23 S0) (* 965 S1)))
 (= X18 (- (* 23 S0) (* 965 S1)))
 (= X18 (- (* 965 S0) (* 23 S1)))
 (= X18 (+ (* 23 S0) (* 453 S1)))
 (= X18 (- (* 23 S0) (* 453 S1)))
 (= X18 (- (* 453 S0) (* 23 S1)))
 (= X18 (+ (* 23 S0) (* 231 S1)))
 (= X18 (- (* 23 S0) (* 231 S1)))
 (= X18 (- (* 231 S0) (* 23 S1)))
 (= X18 (+ (* 23 S0) (* 589 S1)))
 (= X18 (- (* 23 S0) (* 589 S1)))
 (= X18 (- (* 589 S0) (* 23 S1)))
 (= X18 (+ (* 23 S0) (* 591 S1)))
 (= X18 (- (* 23 S0) (* 591 S1)))
 (= X18 (- (* 591 S0) (* 23 S1)))
 (= X18 (+ (* 23 S0) (* 459 S1)))
 (= X18 (- (* 23 S0) (* 459 S1)))
 (= X18 (- (* 459 S0) (* 23 S1)))
 (= X18 (+ (* 23 S0) (* 939 S1)))
 (= X18 (- (* 23 S0) (* 939 S1)))
 (= X18 (- (* 939 S0) (* 23 S1)))
 (= X18 (+ (* 23 S0) (* 851 S1)))
 (= X18 (- (* 23 S0) (* 851 S1)))
 (= X18 (- (* 851 S0) (* 23 S1)))
 (= X18 (+ (* 23 S0) (* 835 S1)))
 (= X18 (- (* 23 S0) (* 835 S1)))
 (= X18 (- (* 835 S0) (* 23 S1)))
 (= X18 (+ (* 23 S0) (* 363 S1)))
 (= X18 (- (* 23 S0) (* 363 S1)))
 (= X18 (- (* 363 S0) (* 23 S1)))
 (= X18 (+ (* 49 S0) S1))
 (= X18 (- (* 49 S0) S1))
 (= X18 (- S0 (* 49 S1)))
 (= X18 (+ (* 49 S0) (* 49 S1)))
 (= X18 (- (* 49 S0) (* 49 S1)))
 (= X18 (+ (* 49 S0) (* 13 S1)))
 (= X18 (- (* 49 S0) (* 13 S1)))
 (= X18 (- (* 13 S0) (* 49 S1)))
 (= X18 (+ (* 49 S0) (* 19 S1)))
 (= X18 (- (* 49 S0) (* 19 S1)))
 (= X18 (- (* 19 S0) (* 49 S1)))
 (= X18 (+ (* 49 S0) (* 155 S1)))
 (= X18 (- (* 49 S0) (* 155 S1)))
 (= X18 (- (* 155 S0) (* 49 S1)))
 (= X18 (+ (* 49 S0) (* 241 S1)))
 (= X18 (- (* 49 S0) (* 241 S1)))
 (= X18 (- (* 241 S0) (* 49 S1)))
 (= X18 (+ (* 49 S0) (* 965 S1)))
 (= X18 (- (* 49 S0) (* 965 S1)))
 (= X18 (- (* 965 S0) (* 49 S1)))
 (= X18 (+ (* 49 S0) (* 453 S1)))
 (= X18 (- (* 49 S0) (* 453 S1)))
 (= X18 (- (* 453 S0) (* 49 S1)))
 (= X18 (+ (* 49 S0) (* 231 S1)))
 (= X18 (- (* 49 S0) (* 231 S1)))
 (= X18 (- (* 231 S0) (* 49 S1)))
 (= X18 (+ (* 49 S0) (* 589 S1)))
 (= X18 (- (* 49 S0) (* 589 S1)))
 (= X18 (- (* 589 S0) (* 49 S1)))
 (= X18 (+ (* 49 S0) (* 591 S1)))
 (= X18 (- (* 49 S0) (* 591 S1)))
 (= X18 (- (* 591 S0) (* 49 S1)))
 (= X18 (+ (* 49 S0) (* 459 S1)))
 (= X18 (- (* 49 S0) (* 459 S1)))
 (= X18 (- (* 459 S0) (* 49 S1)))
 (= X18 (+ (* 49 S0) (* 939 S1)))
 (= X18 (- (* 49 S0) (* 939 S1)))
 (= X18 (- (* 939 S0) (* 49 S1)))
 (= X18 (+ (* 49 S0) (* 851 S1)))
 (= X18 (- (* 49 S0) (* 851 S1)))
 (= X18 (- (* 851 S0) (* 49 S1)))
 (= X18 (+ (* 49 S0) (* 835 S1)))
 (= X18 (- (* 49 S0) (* 835 S1)))
 (= X18 (- (* 835 S0) (* 49 S1)))
 (= X18 (+ (* 49 S0) (* 363 S1)))
 (= X18 (- (* 49 S0) (* 363 S1)))
 (= X18 (- (* 363 S0) (* 49 S1)))
 (= X18 (+ (* 13 S0) S1))
 (= X18 (- (* 13 S0) S1))
 (= X18 (- S0 (* 13 S1)))
 (= X18 (+ (* 13 S0) (* 13 S1)))
 (= X18 (- (* 13 S0) (* 13 S1)))
 (= X18 (+ (* 13 S0) (* 19 S1)))
 (= X18 (- (* 13 S0) (* 19 S1)))
 (= X18 (- (* 19 S0) (* 13 S1)))
 (= X18 (+ (* 13 S0) (* 155 S1)))
 (= X18 (- (* 13 S0) (* 155 S1)))
 (= X18 (- (* 155 S0) (* 13 S1)))
 (= X18 (+ (* 13 S0) (* 241 S1)))
 (= X18 (- (* 13 S0) (* 241 S1)))
 (= X18 (- (* 241 S0) (* 13 S1)))
 (= X18 (+ (* 13 S0) (* 965 S1)))
 (= X18 (- (* 13 S0) (* 965 S1)))
 (= X18 (- (* 965 S0) (* 13 S1)))
 (= X18 (+ (* 13 S0) (* 453 S1)))
 (= X18 (- (* 13 S0) (* 453 S1)))
 (= X18 (- (* 453 S0) (* 13 S1)))
 (= X18 (+ (* 13 S0) (* 231 S1)))
 (= X18 (- (* 13 S0) (* 231 S1)))
 (= X18 (- (* 231 S0) (* 13 S1)))
 (= X18 (+ (* 13 S0) (* 589 S1)))
 (= X18 (- (* 13 S0) (* 589 S1)))
 (= X18 (- (* 589 S0) (* 13 S1)))
 (= X18 (+ (* 13 S0) (* 591 S1)))
 (= X18 (- (* 13 S0) (* 591 S1)))
 (= X18 (- (* 591 S0) (* 13 S1)))
 (= X18 (+ (* 13 S0) (* 459 S1)))
 (= X18 (- (* 13 S0) (* 459 S1)))
 (= X18 (- (* 459 S0) (* 13 S1)))
 (= X18 (+ (* 13 S0) (* 939 S1)))
 (= X18 (- (* 13 S0) (* 939 S1)))
 (= X18 (- (* 939 S0) (* 13 S1)))
 (= X18 (+ (* 13 S0) (* 851 S1)))
 (= X18 (- (* 13 S0) (* 851 S1)))
 (= X18 (- (* 851 S0) (* 13 S1)))
 (= X18 (+ (* 13 S0) (* 835 S1)))
 (= X18 (- (* 13 S0) (* 835 S1)))
 (= X18 (- (* 835 S0) (* 13 S1)))
 (= X18 (+ (* 13 S0) (* 363 S1)))
 (= X18 (- (* 13 S0) (* 363 S1)))
 (= X18 (- (* 363 S0) (* 13 S1)))
 (= X18 (+ (* 19 S0) S1))
 (= X18 (- (* 19 S0) S1))
 (= X18 (- S0 (* 19 S1)))
 (= X18 (+ (* 19 S0) (* 19 S1)))
 (= X18 (- (* 19 S0) (* 19 S1)))
 (= X18 (+ (* 19 S0) (* 155 S1)))
 (= X18 (- (* 19 S0) (* 155 S1)))
 (= X18 (- (* 155 S0) (* 19 S1)))
 (= X18 (+ (* 19 S0) (* 241 S1)))
 (= X18 (- (* 19 S0) (* 241 S1)))
 (= X18 (- (* 241 S0) (* 19 S1)))
 (= X18 (+ (* 19 S0) (* 965 S1)))
 (= X18 (- (* 19 S0) (* 965 S1)))
 (= X18 (- (* 965 S0) (* 19 S1)))
 (= X18 (+ (* 19 S0) (* 453 S1)))
 (= X18 (- (* 19 S0) (* 453 S1)))
 (= X18 (- (* 453 S0) (* 19 S1)))
 (= X18 (+ (* 19 S0) (* 231 S1)))
 (= X18 (- (* 19 S0) (* 231 S1)))
 (= X18 (- (* 231 S0) (* 19 S1)))
 (= X18 (+ (* 19 S0) (* 589 S1)))
 (= X18 (- (* 19 S0) (* 589 S1)))
 (= X18 (- (* 589 S0) (* 19 S1)))
 (= X18 (+ (* 19 S0) (* 591 S1)))
 (= X18 (- (* 19 S0) (* 591 S1)))
 (= X18 (- (* 591 S0) (* 19 S1)))
 (= X18 (+ (* 19 S0) (* 459 S1)))
 (= X18 (- (* 19 S0) (* 459 S1)))
 (= X18 (- (* 459 S0) (* 19 S1)))
 (= X18 (+ (* 19 S0) (* 939 S1)))
 (= X18 (- (* 19 S0) (* 939 S1)))
 (= X18 (- (* 939 S0) (* 19 S1)))
 (= X18 (+ (* 19 S0) (* 851 S1)))
 (= X18 (- (* 19 S0) (* 851 S1)))
 (= X18 (- (* 851 S0) (* 19 S1)))
 (= X18 (+ (* 19 S0) (* 835 S1)))
 (= X18 (- (* 19 S0) (* 835 S1)))
 (= X18 (- (* 835 S0) (* 19 S1)))
 (= X18 (+ (* 19 S0) (* 363 S1)))
 (= X18 (- (* 19 S0) (* 363 S1)))
 (= X18 (- (* 363 S0) (* 19 S1)))
 (= X18 (+ (* 155 S0) S1))
 (= X18 (- (* 155 S0) S1))
 (= X18 (- S0 (* 155 S1)))
 (= X18 (+ (* 155 S0) (* 155 S1)))
 (= X18 (- (* 155 S0) (* 155 S1)))
 (= X18 (+ (* 155 S0) (* 241 S1)))
 (= X18 (- (* 155 S0) (* 241 S1)))
 (= X18 (- (* 241 S0) (* 155 S1)))
 (= X18 (+ (* 155 S0) (* 965 S1)))
 (= X18 (- (* 155 S0) (* 965 S1)))
 (= X18 (- (* 965 S0) (* 155 S1)))
 (= X18 (+ (* 155 S0) (* 453 S1)))
 (= X18 (- (* 155 S0) (* 453 S1)))
 (= X18 (- (* 453 S0) (* 155 S1)))
 (= X18 (+ (* 155 S0) (* 231 S1)))
 (= X18 (- (* 155 S0) (* 231 S1)))
 (= X18 (- (* 231 S0) (* 155 S1)))
 (= X18 (+ (* 155 S0) (* 589 S1)))
 (= X18 (- (* 155 S0) (* 589 S1)))
 (= X18 (- (* 589 S0) (* 155 S1)))
 (= X18 (+ (* 155 S0) (* 591 S1)))
 (= X18 (- (* 155 S0) (* 591 S1)))
 (= X18 (- (* 591 S0) (* 155 S1)))
 (= X18 (+ (* 155 S0) (* 459 S1)))
 (= X18 (- (* 155 S0) (* 459 S1)))
 (= X18 (- (* 459 S0) (* 155 S1)))
 (= X18 (+ (* 155 S0) (* 939 S1)))
 (= X18 (- (* 155 S0) (* 939 S1)))
 (= X18 (- (* 939 S0) (* 155 S1)))
 (= X18 (+ (* 155 S0) (* 851 S1)))
 (= X18 (- (* 155 S0) (* 851 S1)))
 (= X18 (- (* 851 S0) (* 155 S1)))
 (= X18 (+ (* 155 S0) (* 835 S1)))
 (= X18 (- (* 155 S0) (* 835 S1)))
 (= X18 (- (* 835 S0) (* 155 S1)))
 (= X18 (+ (* 155 S0) (* 363 S1)))
 (= X18 (- (* 155 S0) (* 363 S1)))
 (= X18 (- (* 363 S0) (* 155 S1)))
 (= X18 (+ (* 241 S0) S1))
 (= X18 (- (* 241 S0) S1))
 (= X18 (- S0 (* 241 S1)))
 (= X18 (+ (* 241 S0) (* 241 S1)))
 (= X18 (- (* 241 S0) (* 241 S1)))
 (= X18 (+ (* 241 S0) (* 965 S1)))
 (= X18 (- (* 241 S0) (* 965 S1)))
 (= X18 (- (* 965 S0) (* 241 S1)))
 (= X18 (+ (* 241 S0) (* 453 S1)))
 (= X18 (- (* 241 S0) (* 453 S1)))
 (= X18 (- (* 453 S0) (* 241 S1)))
 (= X18 (+ (* 241 S0) (* 231 S1)))
 (= X18 (- (* 241 S0) (* 231 S1)))
 (= X18 (- (* 231 S0) (* 241 S1)))
 (= X18 (+ (* 241 S0) (* 589 S1)))
 (= X18 (- (* 241 S0) (* 589 S1)))
 (= X18 (- (* 589 S0) (* 241 S1)))
 (= X18 (+ (* 241 S0) (* 591 S1)))
 (= X18 (- (* 241 S0) (* 591 S1)))
 (= X18 (- (* 591 S0) (* 241 S1)))
 (= X18 (+ (* 241 S0) (* 459 S1)))
 (= X18 (- (* 241 S0) (* 459 S1)))
 (= X18 (- (* 459 S0) (* 241 S1)))
 (= X18 (+ (* 241 S0) (* 939 S1)))
 (= X18 (- (* 241 S0) (* 939 S1)))
 (= X18 (- (* 939 S0) (* 241 S1)))
 (= X18 (+ (* 241 S0) (* 851 S1)))
 (= X18 (- (* 241 S0) (* 851 S1)))
 (= X18 (- (* 851 S0) (* 241 S1)))
 (= X18 (+ (* 241 S0) (* 835 S1)))
 (= X18 (- (* 241 S0) (* 835 S1)))
 (= X18 (- (* 835 S0) (* 241 S1)))
 (= X18 (+ (* 241 S0) (* 363 S1)))
 (= X18 (- (* 241 S0) (* 363 S1)))
 (= X18 (- (* 363 S0) (* 241 S1)))
 (= X18 (+ (* 965 S0) S1))
 (= X18 (- (* 965 S0) S1))
 (= X18 (- S0 (* 965 S1)))
 (= X18 (+ (* 965 S0) (* 965 S1)))
 (= X18 (- (* 965 S0) (* 965 S1)))
 (= X18 (+ (* 965 S0) (* 453 S1)))
 (= X18 (- (* 965 S0) (* 453 S1)))
 (= X18 (- (* 453 S0) (* 965 S1)))
 (= X18 (+ (* 965 S0) (* 231 S1)))
 (= X18 (- (* 965 S0) (* 231 S1)))
 (= X18 (- (* 231 S0) (* 965 S1)))
 (= X18 (+ (* 965 S0) (* 589 S1)))
 (= X18 (- (* 965 S0) (* 589 S1)))
 (= X18 (- (* 589 S0) (* 965 S1)))
 (= X18 (+ (* 965 S0) (* 591 S1)))
 (= X18 (- (* 965 S0) (* 591 S1)))
 (= X18 (- (* 591 S0) (* 965 S1)))
 (= X18 (+ (* 965 S0) (* 459 S1)))
 (= X18 (- (* 965 S0) (* 459 S1)))
 (= X18 (- (* 459 S0) (* 965 S1)))
 (= X18 (+ (* 965 S0) (* 939 S1)))
 (= X18 (- (* 965 S0) (* 939 S1)))
 (= X18 (- (* 939 S0) (* 965 S1)))
 (= X18 (+ (* 965 S0) (* 851 S1)))
 (= X18 (- (* 965 S0) (* 851 S1)))
 (= X18 (- (* 851 S0) (* 965 S1)))
 (= X18 (+ (* 965 S0) (* 835 S1)))
 (= X18 (- (* 965 S0) (* 835 S1)))
 (= X18 (- (* 835 S0) (* 965 S1)))
 (= X18 (+ (* 965 S0) (* 363 S1)))
 (= X18 (- (* 965 S0) (* 363 S1)))
 (= X18 (- (* 363 S0) (* 965 S1)))
 (= X18 (+ (* 453 S0) S1))
 (= X18 (- (* 453 S0) S1))
 (= X18 (- S0 (* 453 S1)))
 (= X18 (+ (* 453 S0) (* 453 S1)))
 (= X18 (- (* 453 S0) (* 453 S1)))
 (= X18 (+ (* 453 S0) (* 231 S1)))
 (= X18 (- (* 453 S0) (* 231 S1)))
 (= X18 (- (* 231 S0) (* 453 S1)))
 (= X18 (+ (* 453 S0) (* 589 S1)))
 (= X18 (- (* 453 S0) (* 589 S1)))
 (= X18 (- (* 589 S0) (* 453 S1)))
 (= X18 (+ (* 453 S0) (* 591 S1)))
 (= X18 (- (* 453 S0) (* 591 S1)))
 (= X18 (- (* 591 S0) (* 453 S1)))
 (= X18 (+ (* 453 S0) (* 459 S1)))
 (= X18 (- (* 453 S0) (* 459 S1)))
 (= X18 (- (* 459 S0) (* 453 S1)))
 (= X18 (+ (* 453 S0) (* 939 S1)))
 (= X18 (- (* 453 S0) (* 939 S1)))
 (= X18 (- (* 939 S0) (* 453 S1)))
 (= X18 (+ (* 453 S0) (* 851 S1)))
 (= X18 (- (* 453 S0) (* 851 S1)))
 (= X18 (- (* 851 S0) (* 453 S1)))
 (= X18 (+ (* 453 S0) (* 835 S1)))
 (= X18 (- (* 453 S0) (* 835 S1)))
 (= X18 (- (* 835 S0) (* 453 S1)))
 (= X18 (+ (* 453 S0) (* 363 S1)))
 (= X18 (- (* 453 S0) (* 363 S1)))
 (= X18 (- (* 363 S0) (* 453 S1)))
 (= X18 (+ (* 231 S0) S1))
 (= X18 (- (* 231 S0) S1))
 (= X18 (- S0 (* 231 S1)))
 (= X18 (+ (* 231 S0) (* 231 S1)))
 (= X18 (- (* 231 S0) (* 231 S1)))
 (= X18 (+ (* 231 S0) (* 589 S1)))
 (= X18 (- (* 231 S0) (* 589 S1)))
 (= X18 (- (* 589 S0) (* 231 S1)))
 (= X18 (+ (* 231 S0) (* 591 S1)))
 (= X18 (- (* 231 S0) (* 591 S1)))
 (= X18 (- (* 591 S0) (* 231 S1)))
 (= X18 (+ (* 231 S0) (* 459 S1)))
 (= X18 (- (* 231 S0) (* 459 S1)))
 (= X18 (- (* 459 S0) (* 231 S1)))
 (= X18 (+ (* 231 S0) (* 939 S1)))
 (= X18 (- (* 231 S0) (* 939 S1)))
 (= X18 (- (* 939 S0) (* 231 S1)))
 (= X18 (+ (* 231 S0) (* 851 S1)))
 (= X18 (- (* 231 S0) (* 851 S1)))
 (= X18 (- (* 851 S0) (* 231 S1)))
 (= X18 (+ (* 231 S0) (* 835 S1)))
 (= X18 (- (* 231 S0) (* 835 S1)))
 (= X18 (- (* 835 S0) (* 231 S1)))
 (= X18 (+ (* 231 S0) (* 363 S1)))
 (= X18 (- (* 231 S0) (* 363 S1)))
 (= X18 (- (* 363 S0) (* 231 S1)))
 (= X18 (+ (* 589 S0) S1))
 (= X18 (- (* 589 S0) S1))
 (= X18 (- S0 (* 589 S1)))
 (= X18 (+ (* 589 S0) (* 589 S1)))
 (= X18 (- (* 589 S0) (* 589 S1)))
 (= X18 (+ (* 589 S0) (* 591 S1)))
 (= X18 (- (* 589 S0) (* 591 S1)))
 (= X18 (- (* 591 S0) (* 589 S1)))
 (= X18 (+ (* 589 S0) (* 459 S1)))
 (= X18 (- (* 589 S0) (* 459 S1)))
 (= X18 (- (* 459 S0) (* 589 S1)))
 (= X18 (+ (* 589 S0) (* 939 S1)))
 (= X18 (- (* 589 S0) (* 939 S1)))
 (= X18 (- (* 939 S0) (* 589 S1)))
 (= X18 (+ (* 589 S0) (* 851 S1)))
 (= X18 (- (* 589 S0) (* 851 S1)))
 (= X18 (- (* 851 S0) (* 589 S1)))
 (= X18 (+ (* 589 S0) (* 835 S1)))
 (= X18 (- (* 589 S0) (* 835 S1)))
 (= X18 (- (* 835 S0) (* 589 S1)))
 (= X18 (+ (* 589 S0) (* 363 S1)))
 (= X18 (- (* 589 S0) (* 363 S1)))
 (= X18 (- (* 363 S0) (* 589 S1)))
 (= X18 (+ (* 591 S0) S1))
 (= X18 (- (* 591 S0) S1))
 (= X18 (- S0 (* 591 S1)))
 (= X18 (+ (* 591 S0) (* 591 S1)))
 (= X18 (- (* 591 S0) (* 591 S1)))
 (= X18 (+ (* 591 S0) (* 459 S1)))
 (= X18 (- (* 591 S0) (* 459 S1)))
 (= X18 (- (* 459 S0) (* 591 S1)))
 (= X18 (+ (* 591 S0) (* 939 S1)))
 (= X18 (- (* 591 S0) (* 939 S1)))
 (= X18 (- (* 939 S0) (* 591 S1)))
 (= X18 (+ (* 591 S0) (* 851 S1)))
 (= X18 (- (* 591 S0) (* 851 S1)))
 (= X18 (- (* 851 S0) (* 591 S1)))
 (= X18 (+ (* 591 S0) (* 835 S1)))
 (= X18 (- (* 591 S0) (* 835 S1)))
 (= X18 (- (* 835 S0) (* 591 S1)))
 (= X18 (+ (* 591 S0) (* 363 S1)))
 (= X18 (- (* 591 S0) (* 363 S1)))
 (= X18 (- (* 363 S0) (* 591 S1)))
 (= X18 (+ (* 459 S0) S1))
 (= X18 (- (* 459 S0) S1))
 (= X18 (- S0 (* 459 S1)))
 (= X18 (+ (* 459 S0) (* 459 S1)))
 (= X18 (- (* 459 S0) (* 459 S1)))
 (= X18 (+ (* 459 S0) (* 939 S1)))
 (= X18 (- (* 459 S0) (* 939 S1)))
 (= X18 (- (* 939 S0) (* 459 S1)))
 (= X18 (+ (* 459 S0) (* 851 S1)))
 (= X18 (- (* 459 S0) (* 851 S1)))
 (= X18 (- (* 851 S0) (* 459 S1)))
 (= X18 (+ (* 459 S0) (* 835 S1)))
 (= X18 (- (* 459 S0) (* 835 S1)))
 (= X18 (- (* 835 S0) (* 459 S1)))
 (= X18 (+ (* 459 S0) (* 363 S1)))
 (= X18 (- (* 459 S0) (* 363 S1)))
 (= X18 (- (* 363 S0) (* 459 S1)))
 (= X18 (+ (* 939 S0) S1))
 (= X18 (- (* 939 S0) S1))
 (= X18 (- S0 (* 939 S1)))
 (= X18 (+ (* 939 S0) (* 939 S1)))
 (= X18 (- (* 939 S0) (* 939 S1)))
 (= X18 (+ (* 939 S0) (* 851 S1)))
 (= X18 (- (* 939 S0) (* 851 S1)))
 (= X18 (- (* 851 S0) (* 939 S1)))
 (= X18 (+ (* 939 S0) (* 835 S1)))
 (= X18 (- (* 939 S0) (* 835 S1)))
 (= X18 (- (* 835 S0) (* 939 S1)))
 (= X18 (+ (* 939 S0) (* 363 S1)))
 (= X18 (- (* 939 S0) (* 363 S1)))
 (= X18 (- (* 363 S0) (* 939 S1)))
 (= X18 (+ (* 851 S0) S1))
 (= X18 (- (* 851 S0) S1))
 (= X18 (- S0 (* 851 S1)))
 (= X18 (+ (* 851 S0) (* 851 S1)))
 (= X18 (- (* 851 S0) (* 851 S1)))
 (= X18 (+ (* 851 S0) (* 835 S1)))
 (= X18 (- (* 851 S0) (* 835 S1)))
 (= X18 (- (* 835 S0) (* 851 S1)))
 (= X18 (+ (* 851 S0) (* 363 S1)))
 (= X18 (- (* 851 S0) (* 363 S1)))
 (= X18 (- (* 363 S0) (* 851 S1)))
 (= X18 (+ (* 835 S0) S1))
 (= X18 (- (* 835 S0) S1))
 (= X18 (- S0 (* 835 S1)))
 (= X18 (+ (* 835 S0) (* 835 S1)))
 (= X18 (- (* 835 S0) (* 835 S1)))
 (= X18 (+ (* 835 S0) (* 363 S1)))
 (= X18 (- (* 835 S0) (* 363 S1)))
 (= X18 (- (* 363 S0) (* 835 S1)))
 (= X18 (+ (* 363 S0) S1))
 (= X18 (- (* 363 S0) S1))
 (= X18 (- S0 (* 363 S1)))
 (= X18 (+ (* 363 S0) (* 363 S1)))
 (= X18 (- (* 363 S0) (* 363 S1)))
))
(assert (and (> X18 0) (< X18 2048) (power2 S0) (power2 S1)))
(assert (or
 (= X19 (+ (* 31 S2) S3))
 (= X19 (- (* 31 S2) S3))
 (= X19 (- S2 (* 31 S3)))
 (= X19 (+ (* 31 S2) (* 31 S3)))
 (= X19 (- (* 31 S2) (* 31 S3)))
 (= X19 (+ (* 31 S2) (* 17 S3)))
 (= X19 (- (* 31 S2) (* 17 S3)))
 (= X19 (- (* 17 S2) (* 31 S3)))
 (= X19 (+ (* 31 S2) (* 23 S3)))
 (= X19 (- (* 31 S2) (* 23 S3)))
 (= X19 (- (* 23 S2) (* 31 S3)))
 (= X19 (+ (* 31 S2) (* 49 S3)))
 (= X19 (- (* 31 S2) (* 49 S3)))
 (= X19 (- (* 49 S2) (* 31 S3)))
 (= X19 (+ (* 31 S2) (* 13 S3)))
 (= X19 (- (* 31 S2) (* 13 S3)))
 (= X19 (- (* 13 S2) (* 31 S3)))
 (= X19 (+ (* 31 S2) (* 19 S3)))
 (= X19 (- (* 31 S2) (* 19 S3)))
 (= X19 (- (* 19 S2) (* 31 S3)))
 (= X19 (+ (* 31 S2) (* 155 S3)))
 (= X19 (- (* 31 S2) (* 155 S3)))
 (= X19 (- (* 155 S2) (* 31 S3)))
 (= X19 (+ (* 31 S2) (* 241 S3)))
 (= X19 (- (* 31 S2) (* 241 S3)))
 (= X19 (- (* 241 S2) (* 31 S3)))
 (= X19 (+ (* 31 S2) (* 965 S3)))
 (= X19 (- (* 31 S2) (* 965 S3)))
 (= X19 (- (* 965 S2) (* 31 S3)))
 (= X19 (+ (* 31 S2) (* 453 S3)))
 (= X19 (- (* 31 S2) (* 453 S3)))
 (= X19 (- (* 453 S2) (* 31 S3)))
 (= X19 (+ (* 31 S2) (* 231 S3)))
 (= X19 (- (* 31 S2) (* 231 S3)))
 (= X19 (- (* 231 S2) (* 31 S3)))
 (= X19 (+ (* 31 S2) (* 589 S3)))
 (= X19 (- (* 31 S2) (* 589 S3)))
 (= X19 (- (* 589 S2) (* 31 S3)))
 (= X19 (+ (* 31 S2) (* 591 S3)))
 (= X19 (- (* 31 S2) (* 591 S3)))
 (= X19 (- (* 591 S2) (* 31 S3)))
 (= X19 (+ (* 31 S2) (* 459 S3)))
 (= X19 (- (* 31 S2) (* 459 S3)))
 (= X19 (- (* 459 S2) (* 31 S3)))
 (= X19 (+ (* 31 S2) (* 939 S3)))
 (= X19 (- (* 31 S2) (* 939 S3)))
 (= X19 (- (* 939 S2) (* 31 S3)))
 (= X19 (+ (* 31 S2) (* 851 S3)))
 (= X19 (- (* 31 S2) (* 851 S3)))
 (= X19 (- (* 851 S2) (* 31 S3)))
 (= X19 (+ (* 31 S2) (* 835 S3)))
 (= X19 (- (* 31 S2) (* 835 S3)))
 (= X19 (- (* 835 S2) (* 31 S3)))
 (= X19 (+ (* 31 S2) (* 363 S3)))
 (= X19 (- (* 31 S2) (* 363 S3)))
 (= X19 (- (* 363 S2) (* 31 S3)))
 (= X19 (+ (* 31 S2) (* X18 S3)))
 (= X19 (- (* 31 S2) (* X18 S3)))
 (= X19 (- (* X18 S2) (* 31 S3)))
 (= X19 (+ (* 17 S2) S3))
 (= X19 (- (* 17 S2) S3))
 (= X19 (- S2 (* 17 S3)))
 (= X19 (+ (* 17 S2) (* 17 S3)))
 (= X19 (- (* 17 S2) (* 17 S3)))
 (= X19 (+ (* 17 S2) (* 23 S3)))
 (= X19 (- (* 17 S2) (* 23 S3)))
 (= X19 (- (* 23 S2) (* 17 S3)))
 (= X19 (+ (* 17 S2) (* 49 S3)))
 (= X19 (- (* 17 S2) (* 49 S3)))
 (= X19 (- (* 49 S2) (* 17 S3)))
 (= X19 (+ (* 17 S2) (* 13 S3)))
 (= X19 (- (* 17 S2) (* 13 S3)))
 (= X19 (- (* 13 S2) (* 17 S3)))
 (= X19 (+ (* 17 S2) (* 19 S3)))
 (= X19 (- (* 17 S2) (* 19 S3)))
 (= X19 (- (* 19 S2) (* 17 S3)))
 (= X19 (+ (* 17 S2) (* 155 S3)))
 (= X19 (- (* 17 S2) (* 155 S3)))
 (= X19 (- (* 155 S2) (* 17 S3)))
 (= X19 (+ (* 17 S2) (* 241 S3)))
 (= X19 (- (* 17 S2) (* 241 S3)))
 (= X19 (- (* 241 S2) (* 17 S3)))
 (= X19 (+ (* 17 S2) (* 965 S3)))
 (= X19 (- (* 17 S2) (* 965 S3)))
 (= X19 (- (* 965 S2) (* 17 S3)))
 (= X19 (+ (* 17 S2) (* 453 S3)))
 (= X19 (- (* 17 S2) (* 453 S3)))
 (= X19 (- (* 453 S2) (* 17 S3)))
 (= X19 (+ (* 17 S2) (* 231 S3)))
 (= X19 (- (* 17 S2) (* 231 S3)))
 (= X19 (- (* 231 S2) (* 17 S3)))
 (= X19 (+ (* 17 S2) (* 589 S3)))
 (= X19 (- (* 17 S2) (* 589 S3)))
 (= X19 (- (* 589 S2) (* 17 S3)))
 (= X19 (+ (* 17 S2) (* 591 S3)))
 (= X19 (- (* 17 S2) (* 591 S3)))
 (= X19 (- (* 591 S2) (* 17 S3)))
 (= X19 (+ (* 17 S2) (* 459 S3)))
 (= X19 (- (* 17 S2) (* 459 S3)))
 (= X19 (- (* 459 S2) (* 17 S3)))
 (= X19 (+ (* 17 S2) (* 939 S3)))
 (= X19 (- (* 17 S2) (* 939 S3)))
 (= X19 (- (* 939 S2) (* 17 S3)))
 (= X19 (+ (* 17 S2) (* 851 S3)))
 (= X19 (- (* 17 S2) (* 851 S3)))
 (= X19 (- (* 851 S2) (* 17 S3)))
 (= X19 (+ (* 17 S2) (* 835 S3)))
 (= X19 (- (* 17 S2) (* 835 S3)))
 (= X19 (- (* 835 S2) (* 17 S3)))
 (= X19 (+ (* 17 S2) (* 363 S3)))
 (= X19 (- (* 17 S2) (* 363 S3)))
 (= X19 (- (* 363 S2) (* 17 S3)))
 (= X19 (+ (* 17 S2) (* X18 S3)))
 (= X19 (- (* 17 S2) (* X18 S3)))
 (= X19 (- (* X18 S2) (* 17 S3)))
 (= X19 (+ (* 23 S2) S3))
 (= X19 (- (* 23 S2) S3))
 (= X19 (- S2 (* 23 S3)))
 (= X19 (+ (* 23 S2) (* 23 S3)))
 (= X19 (- (* 23 S2) (* 23 S3)))
 (= X19 (+ (* 23 S2) (* 49 S3)))
 (= X19 (- (* 23 S2) (* 49 S3)))
 (= X19 (- (* 49 S2) (* 23 S3)))
 (= X19 (+ (* 23 S2) (* 13 S3)))
 (= X19 (- (* 23 S2) (* 13 S3)))
 (= X19 (- (* 13 S2) (* 23 S3)))
 (= X19 (+ (* 23 S2) (* 19 S3)))
 (= X19 (- (* 23 S2) (* 19 S3)))
 (= X19 (- (* 19 S2) (* 23 S3)))
 (= X19 (+ (* 23 S2) (* 155 S3)))
 (= X19 (- (* 23 S2) (* 155 S3)))
 (= X19 (- (* 155 S2) (* 23 S3)))
 (= X19 (+ (* 23 S2) (* 241 S3)))
 (= X19 (- (* 23 S2) (* 241 S3)))
 (= X19 (- (* 241 S2) (* 23 S3)))
 (= X19 (+ (* 23 S2) (* 965 S3)))
 (= X19 (- (* 23 S2) (* 965 S3)))
 (= X19 (- (* 965 S2) (* 23 S3)))
 (= X19 (+ (* 23 S2) (* 453 S3)))
 (= X19 (- (* 23 S2) (* 453 S3)))
 (= X19 (- (* 453 S2) (* 23 S3)))
 (= X19 (+ (* 23 S2) (* 231 S3)))
 (= X19 (- (* 23 S2) (* 231 S3)))
 (= X19 (- (* 231 S2) (* 23 S3)))
 (= X19 (+ (* 23 S2) (* 589 S3)))
 (= X19 (- (* 23 S2) (* 589 S3)))
 (= X19 (- (* 589 S2) (* 23 S3)))
 (= X19 (+ (* 23 S2) (* 591 S3)))
 (= X19 (- (* 23 S2) (* 591 S3)))
 (= X19 (- (* 591 S2) (* 23 S3)))
 (= X19 (+ (* 23 S2) (* 459 S3)))
 (= X19 (- (* 23 S2) (* 459 S3)))
 (= X19 (- (* 459 S2) (* 23 S3)))
 (= X19 (+ (* 23 S2) (* 939 S3)))
 (= X19 (- (* 23 S2) (* 939 S3)))
 (= X19 (- (* 939 S2) (* 23 S3)))
 (= X19 (+ (* 23 S2) (* 851 S3)))
 (= X19 (- (* 23 S2) (* 851 S3)))
 (= X19 (- (* 851 S2) (* 23 S3)))
 (= X19 (+ (* 23 S2) (* 835 S3)))
 (= X19 (- (* 23 S2) (* 835 S3)))
 (= X19 (- (* 835 S2) (* 23 S3)))
 (= X19 (+ (* 23 S2) (* 363 S3)))
 (= X19 (- (* 23 S2) (* 363 S3)))
 (= X19 (- (* 363 S2) (* 23 S3)))
 (= X19 (+ (* 23 S2) (* X18 S3)))
 (= X19 (- (* 23 S2) (* X18 S3)))
 (= X19 (- (* X18 S2) (* 23 S3)))
 (= X19 (+ (* 49 S2) S3))
 (= X19 (- (* 49 S2) S3))
 (= X19 (- S2 (* 49 S3)))
 (= X19 (+ (* 49 S2) (* 49 S3)))
 (= X19 (- (* 49 S2) (* 49 S3)))
 (= X19 (+ (* 49 S2) (* 13 S3)))
 (= X19 (- (* 49 S2) (* 13 S3)))
 (= X19 (- (* 13 S2) (* 49 S3)))
 (= X19 (+ (* 49 S2) (* 19 S3)))
 (= X19 (- (* 49 S2) (* 19 S3)))
 (= X19 (- (* 19 S2) (* 49 S3)))
 (= X19 (+ (* 49 S2) (* 155 S3)))
 (= X19 (- (* 49 S2) (* 155 S3)))
 (= X19 (- (* 155 S2) (* 49 S3)))
 (= X19 (+ (* 49 S2) (* 241 S3)))
 (= X19 (- (* 49 S2) (* 241 S3)))
 (= X19 (- (* 241 S2) (* 49 S3)))
 (= X19 (+ (* 49 S2) (* 965 S3)))
 (= X19 (- (* 49 S2) (* 965 S3)))
 (= X19 (- (* 965 S2) (* 49 S3)))
 (= X19 (+ (* 49 S2) (* 453 S3)))
 (= X19 (- (* 49 S2) (* 453 S3)))
 (= X19 (- (* 453 S2) (* 49 S3)))
 (= X19 (+ (* 49 S2) (* 231 S3)))
 (= X19 (- (* 49 S2) (* 231 S3)))
 (= X19 (- (* 231 S2) (* 49 S3)))
 (= X19 (+ (* 49 S2) (* 589 S3)))
 (= X19 (- (* 49 S2) (* 589 S3)))
 (= X19 (- (* 589 S2) (* 49 S3)))
 (= X19 (+ (* 49 S2) (* 591 S3)))
 (= X19 (- (* 49 S2) (* 591 S3)))
 (= X19 (- (* 591 S2) (* 49 S3)))
 (= X19 (+ (* 49 S2) (* 459 S3)))
 (= X19 (- (* 49 S2) (* 459 S3)))
 (= X19 (- (* 459 S2) (* 49 S3)))
 (= X19 (+ (* 49 S2) (* 939 S3)))
 (= X19 (- (* 49 S2) (* 939 S3)))
 (= X19 (- (* 939 S2) (* 49 S3)))
 (= X19 (+ (* 49 S2) (* 851 S3)))
 (= X19 (- (* 49 S2) (* 851 S3)))
 (= X19 (- (* 851 S2) (* 49 S3)))
 (= X19 (+ (* 49 S2) (* 835 S3)))
 (= X19 (- (* 49 S2) (* 835 S3)))
 (= X19 (- (* 835 S2) (* 49 S3)))
 (= X19 (+ (* 49 S2) (* 363 S3)))
 (= X19 (- (* 49 S2) (* 363 S3)))
 (= X19 (- (* 363 S2) (* 49 S3)))
 (= X19 (+ (* 49 S2) (* X18 S3)))
 (= X19 (- (* 49 S2) (* X18 S3)))
 (= X19 (- (* X18 S2) (* 49 S3)))
 (= X19 (+ (* 13 S2) S3))
 (= X19 (- (* 13 S2) S3))
 (= X19 (- S2 (* 13 S3)))
 (= X19 (+ (* 13 S2) (* 13 S3)))
 (= X19 (- (* 13 S2) (* 13 S3)))
 (= X19 (+ (* 13 S2) (* 19 S3)))
 (= X19 (- (* 13 S2) (* 19 S3)))
 (= X19 (- (* 19 S2) (* 13 S3)))
 (= X19 (+ (* 13 S2) (* 155 S3)))
 (= X19 (- (* 13 S2) (* 155 S3)))
 (= X19 (- (* 155 S2) (* 13 S3)))
 (= X19 (+ (* 13 S2) (* 241 S3)))
 (= X19 (- (* 13 S2) (* 241 S3)))
 (= X19 (- (* 241 S2) (* 13 S3)))
 (= X19 (+ (* 13 S2) (* 965 S3)))
 (= X19 (- (* 13 S2) (* 965 S3)))
 (= X19 (- (* 965 S2) (* 13 S3)))
 (= X19 (+ (* 13 S2) (* 453 S3)))
 (= X19 (- (* 13 S2) (* 453 S3)))
 (= X19 (- (* 453 S2) (* 13 S3)))
 (= X19 (+ (* 13 S2) (* 231 S3)))
 (= X19 (- (* 13 S2) (* 231 S3)))
 (= X19 (- (* 231 S2) (* 13 S3)))
 (= X19 (+ (* 13 S2) (* 589 S3)))
 (= X19 (- (* 13 S2) (* 589 S3)))
 (= X19 (- (* 589 S2) (* 13 S3)))
 (= X19 (+ (* 13 S2) (* 591 S3)))
 (= X19 (- (* 13 S2) (* 591 S3)))
 (= X19 (- (* 591 S2) (* 13 S3)))
 (= X19 (+ (* 13 S2) (* 459 S3)))
 (= X19 (- (* 13 S2) (* 459 S3)))
 (= X19 (- (* 459 S2) (* 13 S3)))
 (= X19 (+ (* 13 S2) (* 939 S3)))
 (= X19 (- (* 13 S2) (* 939 S3)))
 (= X19 (- (* 939 S2) (* 13 S3)))
 (= X19 (+ (* 13 S2) (* 851 S3)))
 (= X19 (- (* 13 S2) (* 851 S3)))
 (= X19 (- (* 851 S2) (* 13 S3)))
 (= X19 (+ (* 13 S2) (* 835 S3)))
 (= X19 (- (* 13 S2) (* 835 S3)))
 (= X19 (- (* 835 S2) (* 13 S3)))
 (= X19 (+ (* 13 S2) (* 363 S3)))
 (= X19 (- (* 13 S2) (* 363 S3)))
 (= X19 (- (* 363 S2) (* 13 S3)))
 (= X19 (+ (* 13 S2) (* X18 S3)))
 (= X19 (- (* 13 S2) (* X18 S3)))
 (= X19 (- (* X18 S2) (* 13 S3)))
 (= X19 (+ (* 19 S2) S3))
 (= X19 (- (* 19 S2) S3))
 (= X19 (- S2 (* 19 S3)))
 (= X19 (+ (* 19 S2) (* 19 S3)))
 (= X19 (- (* 19 S2) (* 19 S3)))
 (= X19 (+ (* 19 S2) (* 155 S3)))
 (= X19 (- (* 19 S2) (* 155 S3)))
 (= X19 (- (* 155 S2) (* 19 S3)))
 (= X19 (+ (* 19 S2) (* 241 S3)))
 (= X19 (- (* 19 S2) (* 241 S3)))
 (= X19 (- (* 241 S2) (* 19 S3)))
 (= X19 (+ (* 19 S2) (* 965 S3)))
 (= X19 (- (* 19 S2) (* 965 S3)))
 (= X19 (- (* 965 S2) (* 19 S3)))
 (= X19 (+ (* 19 S2) (* 453 S3)))
 (= X19 (- (* 19 S2) (* 453 S3)))
 (= X19 (- (* 453 S2) (* 19 S3)))
 (= X19 (+ (* 19 S2) (* 231 S3)))
 (= X19 (- (* 19 S2) (* 231 S3)))
 (= X19 (- (* 231 S2) (* 19 S3)))
 (= X19 (+ (* 19 S2) (* 589 S3)))
 (= X19 (- (* 19 S2) (* 589 S3)))
 (= X19 (- (* 589 S2) (* 19 S3)))
 (= X19 (+ (* 19 S2) (* 591 S3)))
 (= X19 (- (* 19 S2) (* 591 S3)))
 (= X19 (- (* 591 S2) (* 19 S3)))
 (= X19 (+ (* 19 S2) (* 459 S3)))
 (= X19 (- (* 19 S2) (* 459 S3)))
 (= X19 (- (* 459 S2) (* 19 S3)))
 (= X19 (+ (* 19 S2) (* 939 S3)))
 (= X19 (- (* 19 S2) (* 939 S3)))
 (= X19 (- (* 939 S2) (* 19 S3)))
 (= X19 (+ (* 19 S2) (* 851 S3)))
 (= X19 (- (* 19 S2) (* 851 S3)))
 (= X19 (- (* 851 S2) (* 19 S3)))
 (= X19 (+ (* 19 S2) (* 835 S3)))
 (= X19 (- (* 19 S2) (* 835 S3)))
 (= X19 (- (* 835 S2) (* 19 S3)))
 (= X19 (+ (* 19 S2) (* 363 S3)))
 (= X19 (- (* 19 S2) (* 363 S3)))
 (= X19 (- (* 363 S2) (* 19 S3)))
 (= X19 (+ (* 19 S2) (* X18 S3)))
 (= X19 (- (* 19 S2) (* X18 S3)))
 (= X19 (- (* X18 S2) (* 19 S3)))
 (= X19 (+ (* 155 S2) S3))
 (= X19 (- (* 155 S2) S3))
 (= X19 (- S2 (* 155 S3)))
 (= X19 (+ (* 155 S2) (* 155 S3)))
 (= X19 (- (* 155 S2) (* 155 S3)))
 (= X19 (+ (* 155 S2) (* 241 S3)))
 (= X19 (- (* 155 S2) (* 241 S3)))
 (= X19 (- (* 241 S2) (* 155 S3)))
 (= X19 (+ (* 155 S2) (* 965 S3)))
 (= X19 (- (* 155 S2) (* 965 S3)))
 (= X19 (- (* 965 S2) (* 155 S3)))
 (= X19 (+ (* 155 S2) (* 453 S3)))
 (= X19 (- (* 155 S2) (* 453 S3)))
 (= X19 (- (* 453 S2) (* 155 S3)))
 (= X19 (+ (* 155 S2) (* 231 S3)))
 (= X19 (- (* 155 S2) (* 231 S3)))
 (= X19 (- (* 231 S2) (* 155 S3)))
 (= X19 (+ (* 155 S2) (* 589 S3)))
 (= X19 (- (* 155 S2) (* 589 S3)))
 (= X19 (- (* 589 S2) (* 155 S3)))
 (= X19 (+ (* 155 S2) (* 591 S3)))
 (= X19 (- (* 155 S2) (* 591 S3)))
 (= X19 (- (* 591 S2) (* 155 S3)))
 (= X19 (+ (* 155 S2) (* 459 S3)))
 (= X19 (- (* 155 S2) (* 459 S3)))
 (= X19 (- (* 459 S2) (* 155 S3)))
 (= X19 (+ (* 155 S2) (* 939 S3)))
 (= X19 (- (* 155 S2) (* 939 S3)))
 (= X19 (- (* 939 S2) (* 155 S3)))
 (= X19 (+ (* 155 S2) (* 851 S3)))
 (= X19 (- (* 155 S2) (* 851 S3)))
 (= X19 (- (* 851 S2) (* 155 S3)))
 (= X19 (+ (* 155 S2) (* 835 S3)))
 (= X19 (- (* 155 S2) (* 835 S3)))
 (= X19 (- (* 835 S2) (* 155 S3)))
 (= X19 (+ (* 155 S2) (* 363 S3)))
 (= X19 (- (* 155 S2) (* 363 S3)))
 (= X19 (- (* 363 S2) (* 155 S3)))
 (= X19 (+ (* 155 S2) (* X18 S3)))
 (= X19 (- (* 155 S2) (* X18 S3)))
 (= X19 (- (* X18 S2) (* 155 S3)))
 (= X19 (+ (* 241 S2) S3))
 (= X19 (- (* 241 S2) S3))
 (= X19 (- S2 (* 241 S3)))
 (= X19 (+ (* 241 S2) (* 241 S3)))
 (= X19 (- (* 241 S2) (* 241 S3)))
 (= X19 (+ (* 241 S2) (* 965 S3)))
 (= X19 (- (* 241 S2) (* 965 S3)))
 (= X19 (- (* 965 S2) (* 241 S3)))
 (= X19 (+ (* 241 S2) (* 453 S3)))
 (= X19 (- (* 241 S2) (* 453 S3)))
 (= X19 (- (* 453 S2) (* 241 S3)))
 (= X19 (+ (* 241 S2) (* 231 S3)))
 (= X19 (- (* 241 S2) (* 231 S3)))
 (= X19 (- (* 231 S2) (* 241 S3)))
 (= X19 (+ (* 241 S2) (* 589 S3)))
 (= X19 (- (* 241 S2) (* 589 S3)))
 (= X19 (- (* 589 S2) (* 241 S3)))
 (= X19 (+ (* 241 S2) (* 591 S3)))
 (= X19 (- (* 241 S2) (* 591 S3)))
 (= X19 (- (* 591 S2) (* 241 S3)))
 (= X19 (+ (* 241 S2) (* 459 S3)))
 (= X19 (- (* 241 S2) (* 459 S3)))
 (= X19 (- (* 459 S2) (* 241 S3)))
 (= X19 (+ (* 241 S2) (* 939 S3)))
 (= X19 (- (* 241 S2) (* 939 S3)))
 (= X19 (- (* 939 S2) (* 241 S3)))
 (= X19 (+ (* 241 S2) (* 851 S3)))
 (= X19 (- (* 241 S2) (* 851 S3)))
 (= X19 (- (* 851 S2) (* 241 S3)))
 (= X19 (+ (* 241 S2) (* 835 S3)))
 (= X19 (- (* 241 S2) (* 835 S3)))
 (= X19 (- (* 835 S2) (* 241 S3)))
 (= X19 (+ (* 241 S2) (* 363 S3)))
 (= X19 (- (* 241 S2) (* 363 S3)))
 (= X19 (- (* 363 S2) (* 241 S3)))
 (= X19 (+ (* 241 S2) (* X18 S3)))
 (= X19 (- (* 241 S2) (* X18 S3)))
 (= X19 (- (* X18 S2) (* 241 S3)))
 (= X19 (+ (* 965 S2) S3))
 (= X19 (- (* 965 S2) S3))
 (= X19 (- S2 (* 965 S3)))
 (= X19 (+ (* 965 S2) (* 965 S3)))
 (= X19 (- (* 965 S2) (* 965 S3)))
 (= X19 (+ (* 965 S2) (* 453 S3)))
 (= X19 (- (* 965 S2) (* 453 S3)))
 (= X19 (- (* 453 S2) (* 965 S3)))
 (= X19 (+ (* 965 S2) (* 231 S3)))
 (= X19 (- (* 965 S2) (* 231 S3)))
 (= X19 (- (* 231 S2) (* 965 S3)))
 (= X19 (+ (* 965 S2) (* 589 S3)))
 (= X19 (- (* 965 S2) (* 589 S3)))
 (= X19 (- (* 589 S2) (* 965 S3)))
 (= X19 (+ (* 965 S2) (* 591 S3)))
 (= X19 (- (* 965 S2) (* 591 S3)))
 (= X19 (- (* 591 S2) (* 965 S3)))
 (= X19 (+ (* 965 S2) (* 459 S3)))
 (= X19 (- (* 965 S2) (* 459 S3)))
 (= X19 (- (* 459 S2) (* 965 S3)))
 (= X19 (+ (* 965 S2) (* 939 S3)))
 (= X19 (- (* 965 S2) (* 939 S3)))
 (= X19 (- (* 939 S2) (* 965 S3)))
 (= X19 (+ (* 965 S2) (* 851 S3)))
 (= X19 (- (* 965 S2) (* 851 S3)))
 (= X19 (- (* 851 S2) (* 965 S3)))
 (= X19 (+ (* 965 S2) (* 835 S3)))
 (= X19 (- (* 965 S2) (* 835 S3)))
 (= X19 (- (* 835 S2) (* 965 S3)))
 (= X19 (+ (* 965 S2) (* 363 S3)))
 (= X19 (- (* 965 S2) (* 363 S3)))
 (= X19 (- (* 363 S2) (* 965 S3)))
 (= X19 (+ (* 965 S2) (* X18 S3)))
 (= X19 (- (* 965 S2) (* X18 S3)))
 (= X19 (- (* X18 S2) (* 965 S3)))
 (= X19 (+ (* 453 S2) S3))
 (= X19 (- (* 453 S2) S3))
 (= X19 (- S2 (* 453 S3)))
 (= X19 (+ (* 453 S2) (* 453 S3)))
 (= X19 (- (* 453 S2) (* 453 S3)))
 (= X19 (+ (* 453 S2) (* 231 S3)))
 (= X19 (- (* 453 S2) (* 231 S3)))
 (= X19 (- (* 231 S2) (* 453 S3)))
 (= X19 (+ (* 453 S2) (* 589 S3)))
 (= X19 (- (* 453 S2) (* 589 S3)))
 (= X19 (- (* 589 S2) (* 453 S3)))
 (= X19 (+ (* 453 S2) (* 591 S3)))
 (= X19 (- (* 453 S2) (* 591 S3)))
 (= X19 (- (* 591 S2) (* 453 S3)))
 (= X19 (+ (* 453 S2) (* 459 S3)))
 (= X19 (- (* 453 S2) (* 459 S3)))
 (= X19 (- (* 459 S2) (* 453 S3)))
 (= X19 (+ (* 453 S2) (* 939 S3)))
 (= X19 (- (* 453 S2) (* 939 S3)))
 (= X19 (- (* 939 S2) (* 453 S3)))
 (= X19 (+ (* 453 S2) (* 851 S3)))
 (= X19 (- (* 453 S2) (* 851 S3)))
 (= X19 (- (* 851 S2) (* 453 S3)))
 (= X19 (+ (* 453 S2) (* 835 S3)))
 (= X19 (- (* 453 S2) (* 835 S3)))
 (= X19 (- (* 835 S2) (* 453 S3)))
 (= X19 (+ (* 453 S2) (* 363 S3)))
 (= X19 (- (* 453 S2) (* 363 S3)))
 (= X19 (- (* 363 S2) (* 453 S3)))
 (= X19 (+ (* 453 S2) (* X18 S3)))
 (= X19 (- (* 453 S2) (* X18 S3)))
 (= X19 (- (* X18 S2) (* 453 S3)))
 (= X19 (+ (* 231 S2) S3))
 (= X19 (- (* 231 S2) S3))
 (= X19 (- S2 (* 231 S3)))
 (= X19 (+ (* 231 S2) (* 231 S3)))
 (= X19 (- (* 231 S2) (* 231 S3)))
 (= X19 (+ (* 231 S2) (* 589 S3)))
 (= X19 (- (* 231 S2) (* 589 S3)))
 (= X19 (- (* 589 S2) (* 231 S3)))
 (= X19 (+ (* 231 S2) (* 591 S3)))
 (= X19 (- (* 231 S2) (* 591 S3)))
 (= X19 (- (* 591 S2) (* 231 S3)))
 (= X19 (+ (* 231 S2) (* 459 S3)))
 (= X19 (- (* 231 S2) (* 459 S3)))
 (= X19 (- (* 459 S2) (* 231 S3)))
 (= X19 (+ (* 231 S2) (* 939 S3)))
 (= X19 (- (* 231 S2) (* 939 S3)))
 (= X19 (- (* 939 S2) (* 231 S3)))
 (= X19 (+ (* 231 S2) (* 851 S3)))
 (= X19 (- (* 231 S2) (* 851 S3)))
 (= X19 (- (* 851 S2) (* 231 S3)))
 (= X19 (+ (* 231 S2) (* 835 S3)))
 (= X19 (- (* 231 S2) (* 835 S3)))
 (= X19 (- (* 835 S2) (* 231 S3)))
 (= X19 (+ (* 231 S2) (* 363 S3)))
 (= X19 (- (* 231 S2) (* 363 S3)))
 (= X19 (- (* 363 S2) (* 231 S3)))
 (= X19 (+ (* 231 S2) (* X18 S3)))
 (= X19 (- (* 231 S2) (* X18 S3)))
 (= X19 (- (* X18 S2) (* 231 S3)))
 (= X19 (+ (* 589 S2) S3))
 (= X19 (- (* 589 S2) S3))
 (= X19 (- S2 (* 589 S3)))
 (= X19 (+ (* 589 S2) (* 589 S3)))
 (= X19 (- (* 589 S2) (* 589 S3)))
 (= X19 (+ (* 589 S2) (* 591 S3)))
 (= X19 (- (* 589 S2) (* 591 S3)))
 (= X19 (- (* 591 S2) (* 589 S3)))
 (= X19 (+ (* 589 S2) (* 459 S3)))
 (= X19 (- (* 589 S2) (* 459 S3)))
 (= X19 (- (* 459 S2) (* 589 S3)))
 (= X19 (+ (* 589 S2) (* 939 S3)))
 (= X19 (- (* 589 S2) (* 939 S3)))
 (= X19 (- (* 939 S2) (* 589 S3)))
 (= X19 (+ (* 589 S2) (* 851 S3)))
 (= X19 (- (* 589 S2) (* 851 S3)))
 (= X19 (- (* 851 S2) (* 589 S3)))
 (= X19 (+ (* 589 S2) (* 835 S3)))
 (= X19 (- (* 589 S2) (* 835 S3)))
 (= X19 (- (* 835 S2) (* 589 S3)))
 (= X19 (+ (* 589 S2) (* 363 S3)))
 (= X19 (- (* 589 S2) (* 363 S3)))
 (= X19 (- (* 363 S2) (* 589 S3)))
 (= X19 (+ (* 589 S2) (* X18 S3)))
 (= X19 (- (* 589 S2) (* X18 S3)))
 (= X19 (- (* X18 S2) (* 589 S3)))
 (= X19 (+ (* 591 S2) S3))
 (= X19 (- (* 591 S2) S3))
 (= X19 (- S2 (* 591 S3)))
 (= X19 (+ (* 591 S2) (* 591 S3)))
 (= X19 (- (* 591 S2) (* 591 S3)))
 (= X19 (+ (* 591 S2) (* 459 S3)))
 (= X19 (- (* 591 S2) (* 459 S3)))
 (= X19 (- (* 459 S2) (* 591 S3)))
 (= X19 (+ (* 591 S2) (* 939 S3)))
 (= X19 (- (* 591 S2) (* 939 S3)))
 (= X19 (- (* 939 S2) (* 591 S3)))
 (= X19 (+ (* 591 S2) (* 851 S3)))
 (= X19 (- (* 591 S2) (* 851 S3)))
 (= X19 (- (* 851 S2) (* 591 S3)))
 (= X19 (+ (* 591 S2) (* 835 S3)))
 (= X19 (- (* 591 S2) (* 835 S3)))
 (= X19 (- (* 835 S2) (* 591 S3)))
 (= X19 (+ (* 591 S2) (* 363 S3)))
 (= X19 (- (* 591 S2) (* 363 S3)))
 (= X19 (- (* 363 S2) (* 591 S3)))
 (= X19 (+ (* 591 S2) (* X18 S3)))
 (= X19 (- (* 591 S2) (* X18 S3)))
 (= X19 (- (* X18 S2) (* 591 S3)))
 (= X19 (+ (* 459 S2) S3))
 (= X19 (- (* 459 S2) S3))
 (= X19 (- S2 (* 459 S3)))
 (= X19 (+ (* 459 S2) (* 459 S3)))
 (= X19 (- (* 459 S2) (* 459 S3)))
 (= X19 (+ (* 459 S2) (* 939 S3)))
 (= X19 (- (* 459 S2) (* 939 S3)))
 (= X19 (- (* 939 S2) (* 459 S3)))
 (= X19 (+ (* 459 S2) (* 851 S3)))
 (= X19 (- (* 459 S2) (* 851 S3)))
 (= X19 (- (* 851 S2) (* 459 S3)))
 (= X19 (+ (* 459 S2) (* 835 S3)))
 (= X19 (- (* 459 S2) (* 835 S3)))
 (= X19 (- (* 835 S2) (* 459 S3)))
 (= X19 (+ (* 459 S2) (* 363 S3)))
 (= X19 (- (* 459 S2) (* 363 S3)))
 (= X19 (- (* 363 S2) (* 459 S3)))
 (= X19 (+ (* 459 S2) (* X18 S3)))
 (= X19 (- (* 459 S2) (* X18 S3)))
 (= X19 (- (* X18 S2) (* 459 S3)))
 (= X19 (+ (* 939 S2) S3))
 (= X19 (- (* 939 S2) S3))
 (= X19 (- S2 (* 939 S3)))
 (= X19 (+ (* 939 S2) (* 939 S3)))
 (= X19 (- (* 939 S2) (* 939 S3)))
 (= X19 (+ (* 939 S2) (* 851 S3)))
 (= X19 (- (* 939 S2) (* 851 S3)))
 (= X19 (- (* 851 S2) (* 939 S3)))
 (= X19 (+ (* 939 S2) (* 835 S3)))
 (= X19 (- (* 939 S2) (* 835 S3)))
 (= X19 (- (* 835 S2) (* 939 S3)))
 (= X19 (+ (* 939 S2) (* 363 S3)))
 (= X19 (- (* 939 S2) (* 363 S3)))
 (= X19 (- (* 363 S2) (* 939 S3)))
 (= X19 (+ (* 939 S2) (* X18 S3)))
 (= X19 (- (* 939 S2) (* X18 S3)))
 (= X19 (- (* X18 S2) (* 939 S3)))
 (= X19 (+ (* 851 S2) S3))
 (= X19 (- (* 851 S2) S3))
 (= X19 (- S2 (* 851 S3)))
 (= X19 (+ (* 851 S2) (* 851 S3)))
 (= X19 (- (* 851 S2) (* 851 S3)))
 (= X19 (+ (* 851 S2) (* 835 S3)))
 (= X19 (- (* 851 S2) (* 835 S3)))
 (= X19 (- (* 835 S2) (* 851 S3)))
 (= X19 (+ (* 851 S2) (* 363 S3)))
 (= X19 (- (* 851 S2) (* 363 S3)))
 (= X19 (- (* 363 S2) (* 851 S3)))
 (= X19 (+ (* 851 S2) (* X18 S3)))
 (= X19 (- (* 851 S2) (* X18 S3)))
 (= X19 (- (* X18 S2) (* 851 S3)))
 (= X19 (+ (* 835 S2) S3))
 (= X19 (- (* 835 S2) S3))
 (= X19 (- S2 (* 835 S3)))
 (= X19 (+ (* 835 S2) (* 835 S3)))
 (= X19 (- (* 835 S2) (* 835 S3)))
 (= X19 (+ (* 835 S2) (* 363 S3)))
 (= X19 (- (* 835 S2) (* 363 S3)))
 (= X19 (- (* 363 S2) (* 835 S3)))
 (= X19 (+ (* 835 S2) (* X18 S3)))
 (= X19 (- (* 835 S2) (* X18 S3)))
 (= X19 (- (* X18 S2) (* 835 S3)))
 (= X19 (+ (* 363 S2) S3))
 (= X19 (- (* 363 S2) S3))
 (= X19 (- S2 (* 363 S3)))
 (= X19 (+ (* 363 S2) (* 363 S3)))
 (= X19 (- (* 363 S2) (* 363 S3)))
 (= X19 (+ (* 363 S2) (* X18 S3)))
 (= X19 (- (* 363 S2) (* X18 S3)))
 (= X19 (- (* X18 S2) (* 363 S3)))
 (= X19 (+ (* X18 S2) S3))
 (= X19 (- (* X18 S2) S3))
 (= X19 (- S2 (* X18 S3)))
 (= X19 (+ (* X18 S2) (* X18 S3)))
 (= X19 (- (* X18 S2) (* X18 S3)))
))
(assert (and (> X19 0) (< X19 2048) (power2 S2) (power2 S3)))
(assert
 (= X19 613)
)
(check-sat)
(exit)
